# Solution for model micodag
# Objective value = 20.1191078130487
s_0_1 0
s_1_0 0
s_0_2 0
s_2_0 2.5976326563228191e-01
s_1_2 0
s_2_1 2.4919931355852931e-01
s_1_3 0
s_3_1 6.0498907696244775e-01
s_1_9 0
s_9_1 0
s_1_12 0
s_12_1 2.3198298681318530e-01
s_1_13 0
s_13_1 1.1906973945057242e-01
s_2_3 0
s_3_2 1.9056851060516511e-01
s_2_4 0
s_4_2 3.9839337738504188e-01
s_2_6 0
s_6_2 0
s_2_8 0
s_8_2 2.8479609546554574e-01
s_3_4 0
s_4_3 4.4102784039780438e+00
s_3_6 0
s_6_3 0
s_3_7 0
s_7_3 0
s_3_8 0
s_8_3 4.4102784039780438e+00
s_3_9 0
s_9_3 4.4102784039780438e+00
s_3_12 0
s_12_3 4.4102784039780438e+00
s_3_13 0.0809363853480507
s_13_3 0
s_4_5 0
s_5_4 0
s_4_6 0
s_6_4 3.5112062537931887e-01
s_4_7 0
s_7_4 0
s_4_8 0
s_8_4 0
s_4_11 0
s_11_4 3.4769827793117436e-01
s_5_6 0
s_6_5 5.7564362031791250e-01
s_5_7 0
s_7_5 6.5591915431271985e-01
s_5_14 0
s_14_5 3.8315635333615372e-01
s_6_8 0
s_8_6 4.6599544584123809e-01
s_7_8 0
s_8_7 0
s_7_9 0
s_9_7 2.8460905090193211e-01
s_7_10 0
s_10_7 2.4269860815970734e-01
s_7_11 0
s_11_7 4.1252092873996293e-01
s_8_11 0
s_11_8 2.2823473645814030e-01
s_9_12 0
s_12_9 2.6692759600134242e-01
s_12_13 1.5191600246234760e-01
s_13_12 0
s_0_0 1.0856329884141944e+00
s_1_1 6.1415579954505439e-01
s_2_2 6.6293120688449925e-01
s_3_3 4.4102784039780438e+00
s_4_4 9.8563436741394916e-01
s_5_5 0.746619181241726
s_6_6 9.6946446665956065e-01
s_7_7 1.1149345140771567e+00
s_8_8 7.1866938557495974e-01
s_9_9 0.969803734693433
s_10_10 6.2772916331039941e-01
s_11_11 6.3178172530560950e-01
s_12_12 1.2553593616869403e+00
s_13_13 3.5336613750677959e-01
s_14_14 8.6870999875499644e-01
Gamma_0_0 1.0419371326592577e+00
Gamma_0_1 0
Gamma_0_2 0
Gamma_0_3 0
Gamma_0_4 0
Gamma_0_5 0
Gamma_0_6 0
Gamma_0_7 0
Gamma_0_8 0
Gamma_0_9 0
Gamma_0_10 0
Gamma_0_11 0
Gamma_0_12 0
Gamma_0_13 0
Gamma_0_14 0
Gamma_1_0 0
Gamma_1_1 7.8368092968060354e-01
Gamma_1_2 0
Gamma_1_3 0
Gamma_1_4 0
Gamma_1_5 0
Gamma_1_6 0
Gamma_1_7 0
Gamma_1_8 0
Gamma_1_9 0
Gamma_1_10 0
Gamma_1_11 0
Gamma_1_12 0
Gamma_1_13 0
Gamma_1_14 0
Gamma_2_0 -5.0966976134775976e-01
Gamma_2_1 -0.499198671431055
Gamma_2_2 8.1420587499999053e-01
Gamma_2_3 0
Gamma_2_4 0
Gamma_2_5 0
Gamma_2_6 0
Gamma_2_7 0
Gamma_2_8 0
Gamma_2_9 0
Gamma_2_10 0
Gamma_2_11 0
Gamma_2_12 0
Gamma_2_13 0
Gamma_2_14 0
Gamma_3_0 0
Gamma_3_1 7.7781043767903280e-01
Gamma_3_2 4.3654153365420523e-01
Gamma_3_3 8.9547502834513215e-01
Gamma_3_4 0
Gamma_3_5 0
Gamma_3_6 0
Gamma_3_7 0
Gamma_3_8 0
Gamma_3_9 0
Gamma_3_10 0
Gamma_3_11 0
Gamma_3_12 0
Gamma_3_13 2.8449320791198429e-01
Gamma_3_14 0
Gamma_4_0 0
Gamma_4_1 0
Gamma_4_2 6.3118410736095210e-01
Gamma_4_3 8.0044379219621675e-01
Gamma_4_4 9.9279120031049317e-01
Gamma_4_5 0
Gamma_4_6 0
Gamma_4_7 0
Gamma_4_8 0
Gamma_4_9 0
Gamma_4_10 0
Gamma_4_11 0
Gamma_4_12 0
Gamma_4_13 0
Gamma_4_14 0
Gamma_5_0 0
Gamma_5_1 0
Gamma_5_2 0
Gamma_5_3 0
Gamma_5_4 0
Gamma_5_5 8.6407128250030785e-01
Gamma_5_6 0
Gamma_5_7 0
Gamma_5_8 0
Gamma_5_9 0
Gamma_5_10 0
Gamma_5_11 0
Gamma_5_12 0
Gamma_5_13 0
Gamma_5_14 0
Gamma_6_0 0
Gamma_6_1 0
Gamma_6_2 0
Gamma_6_3 0
Gamma_6_4 -5.9255432272435582e-01
Gamma_6_5 7.5871181638215734e-01
Gamma_6_6 9.8461386678208107e-01
Gamma_6_7 0
Gamma_6_8 0
Gamma_6_9 0
Gamma_6_10 0
Gamma_6_11 0
Gamma_6_12 0
Gamma_6_13 0
Gamma_6_14 0
Gamma_7_0 0
Gamma_7_1 0
Gamma_7_2 0
Gamma_7_3 0
Gamma_7_4 0
Gamma_7_5 -0.809888359166077
Gamma_7_6 0
Gamma_7_7 1.0559045951586523e+00
Gamma_7_8 0
Gamma_7_9 0
Gamma_7_10 0
Gamma_7_11 0
Gamma_7_12 0
Gamma_7_13 0
Gamma_7_14 0
Gamma_8_0 0
Gamma_8_1 0
Gamma_8_2 5.3366290433713570e-01
Gamma_8_3 6.5060123518967428e-01
Gamma_8_4 0
Gamma_8_5 0
Gamma_8_6 -6.8263859094050550e-01
Gamma_8_7 0
Gamma_8_8 8.4774370276337674e-01
Gamma_8_9 0
Gamma_8_10 0
Gamma_8_11 0
Gamma_8_12 0
Gamma_8_13 0
Gamma_8_14 0
Gamma_9_0 0
Gamma_9_1 0
Gamma_9_2 0
Gamma_9_3 6.1899635317808477e-01
Gamma_9_4 0
Gamma_9_5 0
Gamma_9_6 0
Gamma_9_7 -0.533487629567859
Gamma_9_8 0
Gamma_9_9 9.8478613652581126e-01
Gamma_9_10 0
Gamma_9_11 0
Gamma_9_12 0
Gamma_9_13 0
Gamma_9_14 0
Gamma_10_0 0
Gamma_10_1 0
Gamma_10_2 0
Gamma_10_3 0
Gamma_10_4 0
Gamma_10_5 0
Gamma_10_6 0
Gamma_10_7 4.9264450485081834e-01
Gamma_10_8 0
Gamma_10_9 0
Gamma_10_10 0.792293609282821
Gamma_10_11 0
Gamma_10_12 0
Gamma_10_13 0
Gamma_10_14 0
Gamma_11_0 0
Gamma_11_1 0
Gamma_11_2 0
Gamma_11_3 0
Gamma_11_4 -5.8965945929084806e-01
Gamma_11_5 0
Gamma_11_6 0
Gamma_11_7 6.4227792172856446e-01
Gamma_11_8 4.7773919292658146e-01
Gamma_11_9 0
Gamma_11_10 0
Gamma_11_11 7.9484698232150985e-01
Gamma_11_12 0
Gamma_11_13 0
Gamma_11_14 0
Gamma_12_0 0
Gamma_12_1 -4.8164612197461576e-01
Gamma_12_2 0
Gamma_12_3 3.4459432473267904e-01
Gamma_12_4 0
Gamma_12_5 0
Gamma_12_6 0
Gamma_12_7 0
Gamma_12_8 0
Gamma_12_9 -5.1665036146444632e-01
Gamma_12_10 0
Gamma_12_11 0
Gamma_12_12 1.1204282046106040e+00
Gamma_12_13 3.8976403433660828e-01
Gamma_12_14 0
Gamma_13_0 0
Gamma_13_1 3.4506483369154328e-01
Gamma_13_2 0
Gamma_13_3 0
Gamma_13_4 0
Gamma_13_5 0
Gamma_13_6 0
Gamma_13_7 0
Gamma_13_8 0
Gamma_13_9 0
Gamma_13_10 0
Gamma_13_11 0
Gamma_13_12 0
Gamma_13_13 5.9444607619764867e-01
Gamma_13_14 0
Gamma_14_0 0
Gamma_14_1 0
Gamma_14_2 0
Gamma_14_3 0
Gamma_14_4 0
Gamma_14_5 6.1899624662525554e-01
Gamma_14_6 0
Gamma_14_7 0
Gamma_14_8 0
Gamma_14_9 0
Gamma_14_10 0
Gamma_14_11 0
Gamma_14_12 0
Gamma_14_13 0
Gamma_14_14 9.3204613552924320e-01
psi_0 6
psi_1 6
psi_2 5
psi_3 4
psi_4 3
psi_5 3
psi_6 2
psi_7 2
psi_8 1
psi_9 1
psi_10 0
psi_11 0
psi_12 0
psi_13 5
psi_14 0
g_0_0 0
g_0_1 0
g_0_2 0
g_0_3 0
g_0_4 0
g_0_5 0
g_0_6 0
g_0_7 0
g_0_8 0
g_0_9 0
g_0_10 0
g_0_11 0
g_0_12 0
g_0_13 0
g_0_14 0
g_1_0 0
g_1_1 0
g_1_2 0
g_1_3 0
g_1_4 0
g_1_5 0
g_1_6 0
g_1_7 0
g_1_8 0
g_1_9 0
g_1_10 0
g_1_11 0
g_1_12 0
g_1_13 0
g_1_14 0
g_2_0 1
g_2_1 1
g_2_2 0
g_2_3 0
g_2_4 0
g_2_5 0
g_2_6 0
g_2_7 0
g_2_8 0
g_2_9 0
g_2_10 0
g_2_11 0
g_2_12 0
g_2_13 0
g_2_14 0
g_3_0 0
g_3_1 1
g_3_2 1
g_3_3 0
g_3_4 0
g_3_5 0
g_3_6 0
g_3_7 0
g_3_8 0
g_3_9 0
g_3_10 0
g_3_11 0
g_3_12 0
g_3_13 1
g_3_14 0
g_4_0 0
g_4_1 0
g_4_2 1
g_4_3 1
g_4_4 0
g_4_5 0
g_4_6 0
g_4_7 0
g_4_8 0
g_4_9 0
g_4_10 0
g_4_11 0
g_4_12 0
g_4_13 0
g_4_14 0
g_5_0 0
g_5_1 0
g_5_2 0
g_5_3 0
g_5_4 0
g_5_5 0
g_5_6 0
g_5_7 0
g_5_8 0
g_5_9 0
g_5_10 0
g_5_11 0
g_5_12 0
g_5_13 0
g_5_14 0
g_6_0 0
g_6_1 0
g_6_2 0
g_6_3 0
g_6_4 1
g_6_5 1
g_6_6 0
g_6_7 0
g_6_8 0
g_6_9 0
g_6_10 0
g_6_11 0
g_6_12 0
g_6_13 0
g_6_14 0
g_7_0 0
g_7_1 0
g_7_2 0
g_7_3 0
g_7_4 0
g_7_5 1
g_7_6 0
g_7_7 0
g_7_8 0
g_7_9 0
g_7_10 0
g_7_11 0
g_7_12 0
g_7_13 0
g_7_14 0
g_8_0 0
g_8_1 0
g_8_2 1
g_8_3 1
g_8_4 0
g_8_5 0
g_8_6 1
g_8_7 0
g_8_8 0
g_8_9 0
g_8_10 0
g_8_11 0
g_8_12 0
g_8_13 0
g_8_14 0
g_9_0 0
g_9_1 0
g_9_2 0
g_9_3 1
g_9_4 0
g_9_5 0
g_9_6 0
g_9_7 1
g_9_8 0
g_9_9 0
g_9_10 0
g_9_11 0
g_9_12 0
g_9_13 0
g_9_14 0
g_10_0 0
g_10_1 0
g_10_2 0
g_10_3 0
g_10_4 0
g_10_5 0
g_10_6 0
g_10_7 1
g_10_8 0
g_10_9 0
g_10_10 0
g_10_11 0
g_10_12 0
g_10_13 0
g_10_14 0
g_11_0 0
g_11_1 0
g_11_2 0
g_11_3 0
g_11_4 1
g_11_5 0
g_11_6 0
g_11_7 1
g_11_8 1
g_11_9 0
g_11_10 0
g_11_11 0
g_11_12 0
g_11_13 0
g_11_14 0
g_12_0 0
g_12_1 1
g_12_2 0
g_12_3 1
g_12_4 0
g_12_5 0
g_12_6 0
g_12_7 0
g_12_8 0
g_12_9 1
g_12_10 0
g_12_11 0
g_12_12 0
g_12_13 1
g_12_14 0
g_13_0 0
g_13_1 1
g_13_2 0
g_13_3 0
g_13_4 0
g_13_5 0
g_13_6 0
g_13_7 0
g_13_8 0
g_13_9 0
g_13_10 0
g_13_11 0
g_13_12 0
g_13_13 0
g_13_14 0
g_14_0 0
g_14_1 0
g_14_2 0
g_14_3 0
g_14_4 0
g_14_5 1
g_14_6 0
g_14_7 0
g_14_8 0
g_14_9 0
g_14_10 0
g_14_11 0
g_14_12 0
g_14_13 0
g_14_14 0
T_0 -0.0821632163412005
T_1 4.8750663783548021e-01
T_2 4.1108405453495322e-01
T_3 2.2080188716385862e-01
T_4 1.4469817275553964e-02
T_5 2.9220002137476797e-01
T_6 3.1011456173203555e-02
T_7 -0.108795671417937
T_8 3.3035385236094328e-01
T_9 3.0661563324869689e-02
T_10 4.6564647415100069e-01
T_11 4.5921131584158559e-01
T_12 -0.227421875568794
T_13 1.0402505428533573e+00
T_14 1.4074592776178463e-01
